\ Model Staff Scheduling Problem with Skill Level Constraints
\ LP format - for model browsing. Use MPS format to capture full model detail.
Minimize
  x[0,0] + x[0,1] + x[0,2] + x[0,3] + x[0,4] + x[1,0] + x[1,1] + x[1,2]
   + x[1,3] + x[1,4] + x[2,0] + x[2,1] + x[2,2] + x[2,3] + x[2,4] + x[3,0]
   + x[3,1] + x[3,2] + x[3,3] + x[3,4] + x[4,0] + x[4,1] + x[4,2] + x[4,3]
   + x[4,4] + x[5,0] + x[5,1] + x[5,2] + x[5,3] + x[5,4] + x[6,0] + x[6,1]
   + x[6,2] + x[6,3] + x[6,4] + x[7,0] + x[7,1] + x[7,2] + x[7,3] + x[7,4]
   + x[8,0] + x[8,1] + x[8,2] + x[8,3] + x[8,4] + x[9,0] + x[9,1] + x[9,2]
   + x[9,3] + x[9,4]
Subject To
 R0: x[0,0] + x[1,0] + x[2,0] + x[3,0] + x[4,0] + x[5,0] + x[6,0] + x[7,0]
   + x[8,0] + x[9,0] >= 1
 R1: x[0,1] + x[1,1] + x[2,1] + x[3,1] + x[4,1] + x[5,1] + x[6,1] + x[7,1]
   + x[8,1] + x[9,1] >= 1
 R2: x[0,2] + x[1,2] + x[2,2] + x[3,2] + x[4,2] + x[5,2] + x[6,2] + x[7,2]
   + x[8,2] + x[9,2] >= 1
 R3: x[0,3] + x[1,3] + x[2,3] + x[3,3] + x[4,3] + x[5,3] + x[6,3] + x[7,3]
   + x[8,3] + x[9,3] >= 1
 R4: x[0,4] + x[1,4] + x[2,4] + x[3,4] + x[4,4] + x[5,4] + x[6,4] + x[7,4]
   + x[8,4] + x[9,4] >= 1
 R5: 7.21 x[0,0] + 7.6 x[0,1] + 5.78 x[0,2] + 6.12 x[0,3] + 6.78 x[0,4]
   <= 1e+06
 R6: 7.21 x[1,0] + 7.6 x[1,1] + 5.78 x[1,2] + 6.12 x[1,3] + 6.78 x[1,4]
   <= 1e+06
 R7: 7.21 x[2,0] + 7.6 x[2,1] + 5.78 x[2,2] + 6.12 x[2,3] + 6.78 x[2,4]
   <= 1e+06
 R8: 7.21 x[3,0] + 7.6 x[3,1] + 5.78 x[3,2] + 6.12 x[3,3] + 6.78 x[3,4]
   <= 1e+06
 R9: 7.21 x[4,0] + 7.6 x[4,1] + 5.78 x[4,2] + 6.12 x[4,3] + 6.78 x[4,4]
   <= 1e+06
 R10: 7.21 x[5,0] + 7.6 x[5,1] + 5.78 x[5,2] + 6.12 x[5,3] + 6.78 x[5,4]
   <= 1e+06
 R11: 7.21 x[6,0] + 7.6 x[6,1] + 5.78 x[6,2] + 6.12 x[6,3] + 6.78 x[6,4]
   <= 1e+06
 R12: 7.21 x[7,0] + 7.6 x[7,1] + 5.78 x[7,2] + 6.12 x[7,3] + 6.78 x[7,4]
   <= 1e+06
 R13: 7.21 x[8,0] + 7.6 x[8,1] + 5.78 x[8,2] + 6.12 x[8,3] + 6.78 x[8,4]
   <= 1e+06
 R14: 7.21 x[9,0] + 7.6 x[9,1] + 5.78 x[9,2] + 6.12 x[9,3] + 6.78 x[9,4]
   <= 1e+06
 R15: 10 x[0,0] >= 1
 R16: 10 x[1,0] >= 1
 R17: 10 x[2,0] >= 1
 R18: 10 x[3,0] >= 1
 R19: 10 x[4,0] >= 1
 R20: 10 x[5,0] >= 1
 R21: 10 x[6,0] >= 1
 R22: 10 x[7,0] >= 1
 R23: 10 x[8,0] >= 1
 R24: 10 x[9,0] >= 1
 R25: 10 x[0,1] >= 1
 R26: 10 x[1,1] >= 1
 R27: 10 x[2,1] >= 1
 R28: 10 x[3,1] >= 1
 R29: 10 x[4,1] >= 1
 R30: 10 x[5,1] >= 1
 R31: 10 x[6,1] >= 1
 R32: 10 x[7,1] >= 1
 R33: 10 x[8,1] >= 1
 R34: 10 x[9,1] >= 1
 R35: 10 x[0,2] >= 1
 R36: 10 x[1,2] >= 1
 R37: 10 x[2,2] >= 1
 R38: 10 x[3,2] >= 1
 R39: 10 x[4,2] >= 1
 R40: 10 x[5,2] >= 1
 R41: 10 x[6,2] >= 1
 R42: 10 x[7,2] >= 1
 R43: 10 x[8,2] >= 1
 R44: 10 x[9,2] >= 1
 R45: 10 x[0,3] >= 1
 R46: 10 x[1,3] >= 1
 R47: 10 x[2,3] >= 1
 R48: 10 x[3,3] >= 1
 R49: 10 x[4,3] >= 1
 R50: 10 x[5,3] >= 1
 R51: 10 x[6,3] >= 1
 R52: 10 x[7,3] >= 1
 R53: 10 x[8,3] >= 1
 R54: 10 x[9,3] >= 1
 R55: 10 x[0,4] >= 1
 R56: 10 x[1,4] >= 1
 R57: 10 x[2,4] >= 1
 R58: 10 x[3,4] >= 1
 R59: 10 x[4,4] >= 1
 R60: 10 x[5,4] >= 1
 R61: 10 x[6,4] >= 1
 R62: 10 x[7,4] >= 1
 R63: 10 x[8,4] >= 1
 R64: 10 x[9,4] >= 1
Bounds
End
